proyfinal/src/viki/013/experimentInOfficeAgust.take6.output/5850a415-d1b1-44b7-8a13-84f589d9030b.als.out
Reading from standard input... Use '--help' for help.
============================[ Problem Statistics ]=============================
|                                                                             |
|  Number of variables:         87638                                         |
|  Number of clauses:          161767                                         |
|  Parse time:                   0.04 s                                       |
|                                                                             |
============================[ Search Statistics ]==============================
| Conflicts |          ORIGINAL         |          LEARNT          | Progress |
|           |    Vars  Clauses Literals |    Limit  Clauses Lit/Cl |          |
===============================================================================
|       100 |   63104   107788   269500 |    39522      100     38 | 27.995 % |
|       250 |   63104   107788   269500 |    43474      250     62 | 27.995 % |
|       475 |   63104   107788   269500 |    47821      475     72 | 27.995 % |
|       812 |   63104   107788   269500 |    52604      812     62 | 27.995 % |
|      1318 |   63104   107788   269500 |    57864     1318     64 | 27.995 % |
|      2077 |   63086   107714   269329 |    63651     2075     70 | 28.015 % |
|      3216 |   63060   107571   269017 |    70016     3017     99 | 28.045 % |
|      4924 |   63030   107409   268652 |    77017     4721     89 | 28.079 % |
|      7486 |   63030   107409   268652 |    84719     7283     95 | 28.079 % |
|     11330 |   47956    62782   159058 |    93191     9764     88 | 45.279 % |
===============================================================================
restarts              : 58
conflicts             : 12992          (5747 /sec)
decisions             : 35195          (0.00 % random) (15568 /sec)
propagations          : 21794117       (9640544 /sec)
conflict literals     : 1032794        (53.57 % deleted)
Memory used           : 27.49 MB
CPU time              : 2.26067 s

UNSATISFIABLE
